c FILE: aim-50-1_6-yes1-3.cnf
c
c SOURCE: Kazuo Iwama, Eiji Miyano (miyano@cscu.kyushu-u.ac.jp),
c          and Yuichi Asahiro
c
c DESCRIPTION: Artifical instances from generator by source.  Generators
c              and more information in sat/contributed/iwama.
c
c NOTE: Satisfiable
c Simplified to make processing faster
p cnf 20 30
1 2 3 0
1 -2 4 0
1 3 -4 0
1 5 -3 0
-1 5 6 0
7 -5 -8 0
-5 8 9 0
10 8 -20 0
-10 -9 -20 0
11 -9 20 0
12 -11 20 0
-12 -11 -13 0
-12 13 -6 0
-14 -12 13 0
-15 14 -12 0
-16 15 14 0
16 15 17 0
16 -17 18 0
-17 2 -18 0
-17 19 -18 0
-2 -19 19 0
3 -19 -7 0
-3 -7 -7 0
1 7 -19 0
-20 7 -19 0
-15 15 7 0
15 -20 8 0
15 -8 9 0
-8 10 9 0
-10 -4 11 0